
Welcome to IBM(R) ILOG(R) CPLEX(R) Interactive Optimizer 22.1.1.0
  with Simplex, Mixed Integer & Barrier Optimizers
5725-A06 5725-A29 5724-Y48 5724-Y49 5724-Y54 5724-Y55 5655-Y21
Copyright IBM Corp. 1988, 2022.  All Rights Reserved.

Type 'help' for a list of available commands.
Type 'help' followed by a command name for more
information on commands.

CPLEX> Selected objective sense:  MINIMIZE
Selected objective  name:  00000000
Selected RHS        name:  RHS1
Selected bound      name:  BOUND
Problem 'ee.mps' read.
Read time = 0.02 sec. (3.14 ticks)
CPLEX> New value for time limit in seconds: 7200
CPLEX> New value for parallel optimization mode: -1
CPLEX> New value for default parallel thread count: 40
CPLEX> New value for mixed integer optimality gap tolerance: 1e-13
CPLEX> Version identifier: 22.1.1.0 | 2022-11-28 | 9160aff4d
CPXPARAM_Threads                                 40
CPXPARAM_Parallel                                -1
CPXPARAM_TimeLimit                               7200
CPXPARAM_MIP_Tolerances_MIPGap                   1e-13
Found incumbent of value 0.000000 after 0.00 sec. (0.31 ticks)
Tried aggregator 2 times.
MIP Presolve eliminated 180 rows and 2745 columns.
MIP Presolve modified 5862 coefficients.
Aggregator did 713 substitutions.
Reduced MIP has 3623 rows, 7739 columns, and 28643 nonzeros.
Reduced MIP has 7739 binaries, 0 generals, 0 SOSs, and 0 indicators.
Presolve time = 0.07 sec. (68.56 ticks)
Probing time = 0.03 sec. (5.29 ticks)
Tried aggregator 1 time.
Detecting symmetries...
Reduced MIP has 3623 rows, 7739 columns, and 28643 nonzeros.
Reduced MIP has 7739 binaries, 0 generals, 0 SOSs, and 0 indicators.
Presolve time = 0.02 sec. (21.84 ticks)
Probing time = 0.02 sec. (5.10 ticks)
Clique table members: 18551.
MIP emphasis: balance optimality and feasibility.
MIP search method: dynamic search.
Parallel mode: opportunistic, using up to 40 threads.
Root relaxation solution time = 0.11 sec. (95.08 ticks)

        Nodes                                         Cuts/
   Node  Left     Objective  IInf  Best Integer    Best Bound    ItCnt     Gap

*     0+    0                            0.0000  -1.31000e+13              --- 
*     0+    0                      -6.60000e+12  -1.31000e+13            98.48%
*     0+    0                      -7.70000e+12  -1.31000e+13            70.13%
      0     0  -1.30900e+13    24  -7.70000e+12  -1.30900e+13     2331   70.00%
*     0+    0                      -1.30900e+13  -1.30900e+13             0.00%
      0     0  -1.30900e+13    80  -1.30900e+13      Cuts: 45     2524    0.00%
*     0+    0                      -1.30900e+13  -1.30900e+13             0.00%
*     0+    0                      -1.30900e+13  -1.30900e+13             0.00%
      0     0  -1.30900e+13   112  -1.30900e+13      Cuts: 53     2651    0.00%
*     0+    0                      -1.30900e+13  -1.30900e+13             0.00%
*     0+    0                      -1.30900e+13  -1.30900e+13             0.00%
*     0+    0                      -1.30900e+13  -1.30900e+13             0.00%

Repeating presolve.
Tried aggregator 3 times.
MIP Presolve eliminated 1436 rows and 3545 columns.
MIP Presolve added 14 rows and 0 columns.
MIP Presolve modified 184 coefficients.
Aggregator did 541 substitutions.
Reduced MIP has 1660 rows, 3590 columns, and 12727 nonzeros.
Reduced MIP has 3590 binaries, 0 generals, 0 SOSs, and 0 indicators.
Presolve time = 0.09 sec. (98.61 ticks)
Probing time = 0.04 sec. (11.04 ticks)
Tried aggregator 1 time.
Detecting symmetries...
MIP Presolve eliminated 6 rows and 5 columns.
Reduced MIP has 1654 rows, 3585 columns, and 12701 nonzeros.
Reduced MIP has 3585 binaries, 0 generals, 0 SOSs, and 0 indicators.
Presolve time = 0.02 sec. (14.02 ticks)
Represolve time = 0.16 sec. (137.87 ticks)
Probing time = 0.03 sec. (12.66 ticks)
Clique table members: 8476.
MIP emphasis: balance optimality and feasibility.
MIP search method: dynamic search.
Parallel mode: opportunistic, using up to 40 threads.
Root relaxation solution time = 0.07 sec. (42.95 ticks)

        Nodes                                         Cuts/
   Node  Left     Objective  IInf  Best Integer    Best Bound    ItCnt     Gap

*     0+    0                      -1.30900e+13  -1.30900e+13             0.00%
      0     0  -1.30900e+13    54  -1.30900e+13  -1.30900e+13     3952    0.00%
      0     0  -1.30900e+13   143  -1.30900e+13      Cuts: 55     4058    0.00%
      0     0  -1.30900e+13   155  -1.30900e+13      Cuts: 65     4306    0.00%
      0     2  -1.30900e+13   142  -1.30900e+13  -1.30900e+13     4306    0.00%
Elapsed time = 2.09 sec. (1332.61 ticks, tree = 0.02 MB, solutions = 11)
   1766    74        cutoff        -1.30900e+13  -1.30900e+13    32217    0.00%
   4780   539  -1.30900e+13    88  -1.30900e+13  -1.30900e+13   163181    0.00%
   7146   968  -1.30900e+13    82  -1.30900e+13  -1.30900e+13   304453    0.00%
   9195  1262        cutoff        -1.30900e+13  -1.30900e+13   437643    0.00%
  11298  1097        cutoff        -1.30900e+13  -1.30900e+13   371696    0.00%
  12965  1018  -1.30900e+13    98  -1.30900e+13  -1.30900e+13   336709    0.00%
  13983  1255        cutoff        -1.30900e+13  -1.30900e+13   430857    0.00%
  14628  1476  -1.30900e+13    98  -1.30900e+13  -1.30900e+13   511478    0.00%

Performing restart 1

Repeating presolve.
Tried aggregator 1 time.
MIP Presolve eliminated 18 rows and 16 columns.
MIP Presolve modified 1038 coefficients.
Reduced MIP has 1636 rows, 3569 columns, and 12624 nonzeros.
Reduced MIP has 3569 binaries, 0 generals, 0 SOSs, and 0 indicators.
Presolve time = 0.01 sec. (11.80 ticks)
Tried aggregator 1 time.
MIP Presolve eliminated 4 rows and 2 columns.
Reduced MIP has 1632 rows, 3567 columns, and 12612 nonzeros.
Reduced MIP has 3567 binaries, 0 generals, 0 SOSs, and 0 indicators.
Presolve time = 0.02 sec. (14.49 ticks)
Represolve time = 0.10 sec. (59.69 ticks)
  14726     0  -1.30900e+13   247  -1.30900e+13      Cuts: 21   672972    0.00%
  14726     0  -1.30900e+13   228  -1.30900e+13      Cuts: 28   673089    0.00%
  14726     0  -1.30900e+13   209  -1.30900e+13      Cuts: 26   673165    0.00%
  14726     0  -1.30900e+13   162  -1.30900e+13      Cuts: 38   673266    0.00%
  14726     0  -1.30900e+13   144  -1.30900e+13      Cuts: 15   673335    0.00%
  14726     0  -1.30900e+13   211  -1.30900e+13       Cuts: 9   673508    0.00%
  14726     0  -1.30900e+13   225  -1.30900e+13      Cuts: 26   673552    0.00%
  14726     0  -1.30900e+13   254  -1.30900e+13      Cuts: 29   673611    0.00%
  14726     0  -1.30900e+13   248  -1.30900e+13      Cuts: 23   673680    0.00%
  14726     0  -1.30900e+13   286  -1.30900e+13      Cuts: 26   673851    0.00%
  14726     0  -1.30900e+13   299  -1.30900e+13      Cuts: 15   673938    0.00%
  14726     3        cutoff        -1.30900e+13  -1.30900e+13   675780    0.00%
  16636     3  -1.30900e+13   214  -1.30900e+13  -1.30900e+13   674725    0.00%
Elapsed time = 9.22 sec. (5881.00 ticks, tree = 0.02 MB, solutions = 17)

GUB cover cuts applied:  1
Clique cuts applied:  15
Cover cuts applied:  269
Flow cuts applied:  3
Mixed integer rounding cuts applied:  5
Zero-half cuts applied:  55
Lift and project cuts applied:  5
Gomory fractional cuts applied:  20

Root node processing (before b&c):
  Real time             =    1.73 sec. (1332.65 ticks)
Parallel b&c, 40 threads:
  Real time             =    7.53 sec. (4669.28 ticks)
  Sync time (average)   =    2.74 sec.
  Wait time (average)   =    0.09 sec.
                          ------------
Total (root+branch&cut) =    9.26 sec. (6001.93 ticks)

Solution pool: 17 solutions saved.

MIP - Integer optimal solution:  Objective = -1.3089999788e+13
Solution time =    9.36 sec.  Iterations = 733888  Nodes = 16652
Deterministic time = 6001.96 ticks  (641.19 ticks/sec)

CPLEX> Solution 'p18' written to file 'ee.sol'.
CPLEX> 